     Program PWSCF v.5.3.0 starts on 13Jun2019 at 15: 3:24

     Current dimensions of program PWSCF are:
     Max number of different atomic species (ntypx) = 10
     Max number of k-points (npk) =  40000
     Max angular momentum in pseudopotentials (lmaxx) =  3
               file Si.pbe-n-kjpaw_psl.1.0.0.UPF: wavefunction(s)  3S 3P renormalized

     Subspace diagonalization in iterative solution of the eigenvalue problem:
     a serial algorithm will be used

     Message from routine sym_rho_init:
     likely internal error: no G-vectors found
     Message from routine sym_rho_init:
     likely internal error: no G-vectors found
     Message from routine sym_rho_init:
     likely internal error: no G-vectors found
     Message from routine sym_rho_init:
     likely internal error: no G-vectors found
     Message from routine sym_rho_init:
     likely internal error: no G-vectors found
     Message from routine sym_rho_init:
     likely internal error: no G-vectors found
     Message from routine sym_rho_init:
     likely internal error: no G-vectors found
     Message from routine sym_rho_init:
     likely internal error: no G-vectors found
     Message from routine sym_rho_init:
     likely internal error: no G-vectors found
     Message from routine sym_rho_init:
     likely internal error: no G-vectors found
     Message from routine sym_rho_init:
     likely internal error: no G-vectors found
     Message from routine sym_rho_init:
     likely internal error: no G-vectors found

     bravais-lattice index     =            2
     lattice parameter (alat)  =      10.2000  a.u.
     unit-cell volume          =     265.3020 (a.u.)^3
     number of atoms/cell      =            2
     number of atomic types    =            1
     number of electrons       =         8.00
     number of Kohn-Sham states=            4
     kinetic-energy cutoff     =      12.0000  Ry
     charge density cutoff     =      48.0000  Ry
     convergence threshold     =      1.0E-06
     mixing beta               =       0.7000
     number of iterations used =            8  plain     mixing
     Exchange-correlation      =  SLA  PW   PBX  PBC ( 1  4  3  4 0 0)

     celldm(1)=  10.200000  celldm(2)=   0.000000  celldm(3)=   0.000000
     celldm(4)=   0.000000  celldm(5)=   0.000000  celldm(6)=   0.000000

     crystal axes: (cart. coord. in units of alat)
               a(1) = (  -0.500000   0.000000   0.500000 )
               a(2) = (   0.000000   0.500000   0.500000 )
               a(3) = (  -0.500000   0.500000   0.000000 )

     reciprocal axes: (cart. coord. in units 2 pi/alat)
               b(1) = ( -1.000000 -1.000000  1.000000 )
               b(2) = (  1.000000  1.000000  1.000000 )
               b(3) = ( -1.000000  1.000000 -1.000000 )

     PseudoPot. # 1 for Si read from file:
     ../pseudo/Si.pbe-n-kjpaw_psl.1.0.0.UPF
     MD5 check sum: c39c59da582df4a0d9f10159256ea34e
     Pseudo is Projector augmented-wave + core cor, Zval =  4.0
     Generated using "atomic" code by A. Dal Corso  v.6.3
     Shape of augmentation charge: PSQ
     Using radial grid of 1141 points,  6 beta functions with:
                l(1) =   0
                l(2) =   0
                l(3) =   1
                l(4) =   1
                l(5) =   2
                l(6) =   2
     Q(r) pseudized with 0 coefficients

     atomic species   valence    mass     pseudopotential
        Si             4.00    28.08600     Si( 1.00)

     24 Sym. Ops. (no inversion) found
          (note: 24 additional sym.ops. were found but ignored
           their fractional translations are incommensurate with FFT grid)

   Cartesian axes

     site n.     atom                  positions (alat units)
         1           Si  tau(   1) = (   0.0000000   0.0000000   0.0000000  )
         2           Si  tau(   2) = (   0.2500000   0.2500000   0.2500000  )

     number of k points=     2
                       cart. coord. in units 2pi/alat
        k(    1) = (   0.2500000   0.2500000   0.2500000), wk =   0.5000000
        k(    2) = (   0.2500000   0.2500000   0.7500000), wk =   1.5000000

     Largest allocated arrays     est. size (Mb)     dimensions
     Largest temporary arrays     est. size (Mb)     dimensions

     Check: negative/imaginary core charge=   -0.000066    0.000000

     Initial potential from superposition of free atoms

     starting charge    7.99888, renormalised to    8.00000
     Starting wfc are    8 randomized atomic wfcs
     Checking if some PAW data can be deallocated...

     Self-consistent Calculation

     iteration #  1     ecut=    12.00 Ry     beta=0.70
     Davidson diagonalization with overlap
     ethr =  1.00E-02,  avg # of iterations =  2.0

     Threshold (ethr) on eigenvalues was too large:
     Diagonalizing with lowered threshold

     Davidson diagonalization with overlap
     ethr =  7.66E-04,  avg # of iterations =  1.0

     total energy              =     -93.42950980 Ry
     Harris-Foulkes estimate   =     -93.44435732 Ry
     estimated scf accuracy    <       0.06067263 Ry

[...]

     total energy              =     -93.43217547 Ry
     Harris-Foulkes estimate   =     -93.43219255 Ry
     estimated scf accuracy    <       0.00003434 Ry

     iteration #  5     ecut=    12.00 Ry     beta=0.70
     Davidson diagonalization with overlap
     ethr =  4.29E-07,  avg # of iterations =  2.0

     End of self-consistent calculation

          k = 0.2500 0.2500 0.2500 (   180 PWs)   bands (ev):

    -4.8428   2.4835   5.6894   5.6894

          k = 0.2500 0.2500 0.7500 (   186 PWs)   bands (ev):

    -2.8870   0.0034   2.8433   4.1947

     highest occupied level (ev):     5.6894

!    total energy              =     -93.43218026 Ry
     Harris-Foulkes estimate   =     -93.43218048 Ry
     estimated scf accuracy    <       0.00000052 Ry

     total all-electron energy =     -1160.123910 Ry

     The total energy is the sum of the following terms:

     one-electron contribution =       5.89343170 Ry
     hartree contribution      =       1.10202075 Ry
     xc contribution           =     -12.34165653 Ry
     ewald contribution        =     -16.89975858 Ry
     one-center paw contrib.   =     -71.18621761 Ry

     convergence has been achieved in   5 iterations

     Writing output data file SiPerf.save

     General routines

     Parallel routines

   This run was terminated on:  15: 3:26  13Jun2019

   JOB DONE.